p cnf 186 663
1 -2 -3 0
-1 2 -3 0
-1 -2 3 0
4 -5 -6 0
-4 5 -6 0
-4 -5 6 0
7 -8 -9 0
-7 8 -9 0
-7 -8 9 0
10 -11 -12 0
-10 11 -12 0
-10 -11 12 0
13 -14 -15 0
-13 14 -15 0
-13 -14 15 0
16 -17 -18 0
-16 17 -18 0
-16 -17 18 0
19 -20 -21 0
-19 20 -21 0
-19 -20 21 0
22 -23 -24 0
-22 23 -24 0
-22 -23 24 0
25 -26 -27 0
-25 26 -27 0
-25 -26 27 0
28 -29 -30 0
-28 29 -30 0
-28 -29 30 0
31 -32 -33 0
-31 32 -33 0
-31 -32 33 0
34 -35 -36 0
-34 35 -36 0
-34 -35 36 0
37 -38 -39 0
-37 38 -39 0
-37 -38 39 0
40 -41 -42 0
-40 41 -42 0
-40 -41 42 0
43 -44 -45 0
-43 44 -45 0
-43 -44 45 0
46 -47 -48 0
-46 47 -48 0
-46 -47 48 0
49 -50 -51 0
-49 50 -51 0
-49 -50 51 0
52 -53 -54 0
-52 53 -54 0
-52 -53 54 0
55 -56 -57 0
-55 56 -57 0
-55 -56 57 0
58 -59 -60 0
-58 59 -60 0
-58 -59 60 0
61 -62 -63 0
-61 62 -63 0
-61 -62 63 0
64 -65 -66 0
-64 65 -66 0
-64 -65 66 0
67 -68 -69 0
-67 68 -69 0
-67 -68 69 0
70 -71 -72 0
-70 71 -72 0
-70 -71 72 0
73 -74 -75 0
-73 74 -75 0
-73 -74 75 0
76 -77 -78 0
-76 77 -78 0
-76 -77 78 0
79 -80 -81 0
-79 80 -81 0
-79 -80 81 0
82 -83 -84 0
-82 83 -84 0
-82 -83 84 0
85 -86 -87 0
-85 86 -87 0
-85 -86 87 0
88 -89 -90 0
-88 89 -90 0
-88 -89 90 0
91 -92 -93 0
-91 92 -93 0
-91 -92 93 0
94 -95 -96 0
-94 95 -96 0
-94 -95 96 0
97 -98 -99 0
-97 98 -99 0
-97 -98 99 0
100 -101 -102 0
-100 101 -102 0
-100 -101 102 0
103 -104 -105 0
-103 104 -105 0
-103 -104 105 0
106 -107 -108 0
-106 107 -108 0
-106 -107 108 0
109 -110 -111 0
-109 110 -111 0
-109 -110 111 0
112 -113 -114 0
-112 113 -114 0
-112 -113 114 0
115 -116 -117 0
-115 116 -117 0
-115 -116 117 0
118 -119 -120 0
-118 119 -120 0
-118 -119 120 0
121 -122 -123 0
-121 122 -123 0
-121 -122 123 0
124 -125 -126 0
-124 125 -126 0
-124 -125 126 0
127 -128 -129 0
-127 128 -129 0
-127 -128 129 0
130 -131 -132 0
-130 131 -132 0
-130 -131 132 0
133 -134 -135 0
-133 134 -135 0
-133 -134 135 0
136 -137 -138 0
-136 137 -138 0
-136 -137 138 0
139 -140 -141 0
-139 140 -141 0
-139 -140 141 0
142 -143 -144 0
-142 143 -144 0
-142 -143 144 0
145 -146 -147 0
-145 146 -147 0
-145 -146 147 0
148 -149 -150 0
-148 149 -150 0
-148 -149 150 0
151 -152 -153 0
-151 152 -153 0
-151 -152 153 0
154 -155 -156 0
-154 155 -156 0
-154 -155 156 0
157 -158 -159 0
-157 158 -159 0
-157 -158 159 0
160 -161 -162 0
-160 161 -162 0
-160 -161 162 0
163 -164 -165 0
-163 164 -165 0
-163 -164 165 0
166 -167 -168 0
-166 167 -168 0
-166 -167 168 0
169 -170 -171 0
-169 170 -171 0
-169 -170 171 0
172 -173 -174 0
-172 173 -174 0
-172 -173 174 0
175 -176 -177 0
-175 176 -177 0
-175 -176 177 0
178 -179 -180 0
-178 179 -180 0
-178 -179 180 0
181 -182 -183 0
-181 182 -183 0
-181 -182 183 0
184 -185 -186 0
-184 185 -186 0
-184 -185 186 0
-1 -31 0
-2 -32 0
-3 -33 0
-1 -43 0
-2 -44 0
-3 -45 0
-1 -46 0
-2 -47 0
-3 -48 0
-1 -121 0
-2 -122 0
-3 -123 0
-1 -127 0
-2 -128 0
-3 -129 0
-1 -142 0
-2 -143 0
-3 -144 0
-4 -52 0
-5 -53 0
-6 -54 0
-4 -58 0
-5 -59 0
-6 -60 0
-4 -79 0
-5 -80 0
-6 -81 0
-4 -82 0
-5 -83 0
-6 -84 0
-4 -85 0
-5 -86 0
-6 -87 0
-4 -109 0
-5 -110 0
-6 -111 0
-4 -124 0
-5 -125 0
-6 -126 0
-4 -163 0
-5 -164 0
-6 -165 0
-7 -31 0
-8 -32 0
-9 -33 0
-7 -127 0
-8 -128 0
-9 -129 0
-7 -133 0
-8 -134 0
-9 -135 0
-7 -184 0
-8 -185 0
-9 -186 0
-10 -25 0
-11 -26 0
-12 -27 0
-10 -43 0
-11 -44 0
-12 -45 0
-10 -178 0
-11 -179 0
-12 -180 0
-13 -154 0
-14 -155 0
-15 -156 0
-16 -28 0
-17 -29 0
-18 -30 0
-16 -40 0
-17 -41 0
-18 -42 0
-16 -169 0
-17 -170 0
-18 -171 0
-16 -172 0
-17 -173 0
-18 -174 0
-19 -28 0
-20 -29 0
-21 -30 0
-19 -40 0
-20 -41 0
-21 -42 0
-19 -52 0
-20 -53 0
-21 -54 0
-19 -163 0
-20 -164 0
-21 -165 0
-19 -169 0
-20 -170 0
-21 -171 0
-19 -172 0
-20 -173 0
-21 -174 0
-22 -58 0
-23 -59 0
-24 -60 0
-22 -82 0
-23 -83 0
-24 -84 0
-22 -91 0
-23 -92 0
-24 -93 0
-22 -121 0
-23 -122 0
-24 -123 0
-22 -163 0
-23 -164 0
-24 -165 0
-25 -61 0
-26 -62 0
-27 -63 0
-25 -85 0
-26 -86 0
-27 -87 0
-25 -112 0
-26 -113 0
-27 -114 0
-25 -136 0
-26 -137 0
-27 -138 0
-25 -178 0
-26 -179 0
-27 -180 0
-28 -40 0
-29 -41 0
-30 -42 0
-28 -52 0
-29 -53 0
-30 -54 0
-28 -97 0
-29 -98 0
-30 -99 0
-28 -124 0
-29 -125 0
-30 -126 0
-28 -172 0
-29 -173 0
-30 -174 0
-31 -88 0
-32 -89 0
-33 -90 0
-31 -127 0
-32 -128 0
-33 -129 0
-31 -142 0
-32 -143 0
-33 -144 0
-34 -154 0
-35 -155 0
-36 -156 0
-37 -100 0
-38 -101 0
-39 -102 0
-40 -52 0
-41 -53 0
-42 -54 0
-40 -97 0
-41 -98 0
-42 -99 0
-40 -124 0
-41 -125 0
-42 -126 0
-40 -163 0
-41 -164 0
-42 -165 0
-40 -172 0
-41 -173 0
-42 -174 0
-43 -49 0
-44 -50 0
-45 -51 0
-43 -73 0
-44 -74 0
-45 -75 0
-43 -100 0
-44 -101 0
-45 -102 0
-43 -103 0
-44 -104 0
-45 -105 0
-43 -112 0
-44 -113 0
-45 -114 0
-43 -115 0
-44 -116 0
-45 -117 0
-43 -121 0
-44 -122 0
-45 -123 0
-43 -130 0
-44 -131 0
-45 -132 0
-43 -151 0
-44 -152 0
-45 -153 0
-43 -157 0
-44 -158 0
-45 -159 0
-46 -55 0
-47 -56 0
-48 -57 0
-46 -73 0
-47 -74 0
-48 -75 0
-46 -121 0
-47 -122 0
-48 -123 0
-46 -136 0
-47 -137 0
-48 -138 0
-46 -166 0
-47 -167 0
-48 -168 0
-46 -178 0
-47 -179 0
-48 -180 0
-49 -61 0
-50 -62 0
-51 -63 0
-49 -100 0
-50 -101 0
-51 -102 0
-49 -112 0
-50 -113 0
-51 -114 0
-49 -115 0
-50 -116 0
-51 -117 0
-49 -151 0
-50 -152 0
-51 -153 0
-52 -67 0
-53 -68 0
-54 -69 0
-52 -76 0
-53 -77 0
-54 -78 0
-52 -82 0
-53 -83 0
-54 -84 0
-52 -94 0
-53 -95 0
-54 -96 0
-52 -172 0
-53 -173 0
-54 -174 0
-55 -61 0
-56 -62 0
-57 -63 0
-55 -64 0
-56 -65 0
-57 -66 0
-55 -73 0
-56 -74 0
-57 -75 0
-55 -88 0
-56 -89 0
-57 -90 0
-55 -136 0
-56 -137 0
-57 -138 0
-55 -154 0
-56 -155 0
-57 -156 0
-58 -91 0
-59 -92 0
-60 -93 0
-58 -163 0
-59 -164 0
-60 -165 0
-61 -85 0
-62 -86 0
-63 -87 0
-61 -109 0
-62 -110 0
-63 -111 0
-61 -115 0
-62 -116 0
-63 -117 0
-61 -133 0
-62 -134 0
-63 -135 0
-61 -142 0
-62 -143 0
-63 -144 0
-61 -151 0
-62 -152 0
-63 -153 0
-64 -88 0
-65 -89 0
-66 -90 0
-64 -100 0
-65 -101 0
-66 -102 0
-64 -112 0
-65 -113 0
-66 -114 0
-64 -136 0
-65 -137 0
-66 -138 0
-64 -154 0
-65 -155 0
-66 -156 0
-70 -109 0
-71 -110 0
-72 -111 0
-70 -136 0
-71 -137 0
-72 -138 0
-70 -154 0
-71 -155 0
-72 -156 0
-73 -88 0
-74 -89 0
-75 -90 0
-73 -136 0
-74 -137 0
-75 -138 0
-73 -154 0
-74 -155 0
-75 -156 0
-76 -79 0
-77 -80 0
-78 -81 0
-76 -82 0
-77 -83 0
-78 -84 0
-79 -82 0
-80 -83 0
-81 -84 0
-85 -91 0
-86 -92 0
-87 -93 0
-85 -142 0
-86 -143 0
-87 -144 0
-88 -106 0
-89 -107 0
-90 -108 0
-88 -130 0
-89 -131 0
-90 -132 0
-88 -136 0
-89 -137 0
-90 -138 0
-88 -154 0
-89 -155 0
-90 -156 0
-88 -157 0
-89 -158 0
-90 -159 0
-91 -127 0
-92 -128 0
-93 -129 0
-91 -142 0
-92 -143 0
-93 -144 0
-97 -181 0
-98 -182 0
-99 -183 0
-100 -103 0
-101 -104 0
-102 -105 0
-100 -112 0
-101 -113 0
-102 -114 0
-100 -115 0
-101 -116 0
-102 -117 0
-100 -121 0
-101 -122 0
-102 -123 0
-100 -130 0
-101 -131 0
-102 -132 0
-100 -151 0
-101 -152 0
-102 -153 0
-103 -112 0
-104 -113 0
-105 -114 0
-103 -133 0
-104 -134 0
-105 -135 0
-103 -148 0
-104 -149 0
-105 -150 0
-109 -112 0
-110 -113 0
-111 -114 0
-109 -118 0
-110 -119 0
-111 -120 0
-109 -121 0
-110 -122 0
-111 -123 0
-109 -178 0
-110 -179 0
-111 -180 0
-112 -121 0
-113 -122 0
-114 -123 0
-112 -130 0
-113 -131 0
-114 -132 0
-112 -136 0
-113 -137 0
-114 -138 0
-112 -184 0
-113 -185 0
-114 -186 0
-115 -130 0
-116 -131 0
-117 -132 0
-115 -133 0
-116 -134 0
-117 -135 0
-115 -157 0
-116 -158 0
-117 -159 0
-115 -175 0
-116 -176 0
-117 -177 0
-118 -172 0
-119 -173 0
-120 -174 0
-121 -157 0
-122 -158 0
-123 -159 0
-124 -163 0
-125 -164 0
-126 -165 0
-124 -172 0
-125 -173 0
-126 -174 0
-127 -142 0
-128 -143 0
-129 -144 0
-127 -151 0
-128 -152 0
-129 -153 0
-130 -139 0
-131 -140 0
-132 -141 0
-130 -160 0
-131 -161 0
-132 -162 0
-136 -151 0
-137 -152 0
-138 -153 0
-136 -154 0
-137 -155 0
-138 -156 0
-136 -178 0
-137 -179 0
-138 -180 0
-139 -148 0
-140 -149 0
-141 -150 0
-145 -172 0
-146 -173 0
-147 -174 0
-151 -154 0
-152 -155 0
-153 -156 0
-154 -166 0
-155 -167 0
-156 -168 0
-160 -184 0
-161 -185 0
-162 -186 0
-163 -172 0
-164 -173 0
-165 -174 0
